unsat
(forall ((A (_ BitVec 3))
         (B (_ BitVec 4))
         (C (_ BitVec 16))
         (D (_ BitVec 24))
         (E (_ BitVec 8))
         (F (_ BitVec 1))
         (G (_ BitVec 27))
         (H (_ BitVec 1))
         (I (_ BitVec 5))
         (J (_ BitVec 32))
         (K (_ BitVec 1))
         (L (_ BitVec 8))
         (M (_ BitVec 1))
         (N (_ BitVec 1))
         (O (_ BitVec 32))
         (P (_ BitVec 4))
         (Q (_ BitVec 1))
         (R (_ BitVec 1))
         (S (_ BitVec 1))
         (T (_ BitVec 1))
         (U (_ BitVec 8))
         (V (_ BitVec 8))
         (W (_ BitVec 1))
         (X (_ BitVec 1))
         (Y (_ BitVec 8))
         (Z (_ BitVec 1))
         (A1 (_ BitVec 1)))
  (! (let ((a!1 (or (= (bvnot ((_ extract 7 0) O)) #x00)
                    (not ((_ bit2bool 0) T))))
           (a!2 (or ((_ bit2bool 8) G)
                    (not (= Q #b1))
                    (= U (bvnot ((_ extract 7 0) O)))
                    (not (= N #b1))))
           (a!3 (or (not (= R #b0))
                    (= U (bvnot ((_ extract 7 0) O)))
                    (not ((_ bit2bool 0) T))))
           (a!4 (or (not (= R #b0))
                    (= ((_ extract 8 8) G) #b1)
                    (not (= ((_ extract 4 4) U) #b1))))
           (a!5 (or (not (= S #b1))
                    (not (= Q #b1))
                    (not (= ((_ extract 8 8) G) #b0))
                    (not (= ((_ extract 17 17) G) #b1))))
           (a!6 (or (= M #b0)
                    (not (= ((_ extract 26 26) G) #b0))
                    (not (= R #b1))))
           (a!7 (or (not (= R #b1))
                    (not ((_ bit2bool 0) T))
                    (= (bvnot ((_ extract 15 8) O)) #x00)))
           (a!8 (or ((_ bit2bool 17) G)
                    (not ((_ bit2bool 1) B))
                    (not (= ((_ extract 8 8) G) #b1))))
           (a!9 (or ((_ bit2bool 4) I)
                    (= ((_ extract 8 8) G) #b1)
                    (not (= ((_ extract 18 18) O) #b0))))
           (a!10 (or (= ((_ extract 26 26) G) #b0)
                     (not (= ((_ extract 17 17) G) #b0))
                     (not (= R #b1))))
           (a!11 (or (not (= R #b0))
                     ((_ bit2bool 17) G)
                     (not (= ((_ extract 8 8) G) #b1))))
           (a!12 (or (not (= M #b0))
                     (= ((_ extract 26 26) G) #b0)
                     (not (= ((_ extract 17 17) G) #b0))))
           (a!13 (or (not (= R #b0))
                     ((_ bit2bool 8) G)
                     (not (= ((_ extract 7 7) U) #b1))))
           (a!14 (or (not (= R #b1))
                     (not (= ((_ extract 16 0) G) #b00000100000001111))))
           (a!15 (or (not (= R #b0))
                     ((_ bit2bool 8) G)
                     (not (= ((_ extract 3 3) U) #b1))))
           (a!16 (or (not (= M #b0))
                     (not (= R #b0))
                     (not ((_ bit2bool 17) G))
                     (not (= ((_ extract 0 0) P) #b1))))
           (a!17 (= (concat ((_ extract 1 0) O)
                            ((_ extract 0 0) O)
                            (bvnot ((_ extract 0 0) O))
                            ((_ extract 1 0) O)
                            (bvnot ((_ extract 0 0) O))
                            (bvnot ((_ extract 0 0) O)))
                    ((_ extract 31 24) O)))
           (a!18 (not (= ((_ extract 31 24) O)
                         (concat ((_ extract 1 0) O)
                                 ((_ extract 0 0) O)
                                 ((_ extract 0 0) O)
                                 ((_ extract 1 0) O)
                                 ((_ extract 0 0) O)
                                 ((_ extract 0 0) O)))))
           (a!19 (= (concat ((_ extract 1 1) O)
                            (bvnot ((_ extract 0 0) O))
                            (bvnot ((_ extract 0 0) O))
                            (bvnot ((_ extract 0 0) O))
                            ((_ extract 1 1) O)
                            (bvnot ((_ extract 0 0) O))
                            (bvnot ((_ extract 0 0) O))
                            ((_ extract 0 0) O))
                    ((_ extract 31 24) O)))
           (a!20 (= ((_ extract 31 24) O)
                    (concat ((_ extract 1 1) O)
                            (bvnot ((_ extract 0 0) O))
                            (bvnot ((_ extract 0 0) O))
                            (bvnot ((_ extract 0 0) O))
                            (bvnot ((_ extract 1 1) O))
                            (bvnot ((_ extract 0 0) O))
                            (bvnot ((_ extract 0 0) O))
                            (bvnot ((_ extract 0 0) O)))))
           (a!21 (= (concat (bvnot ((_ extract 1 1) O))
                            ((_ extract 0 0) O)
                            ((_ extract 0 0) O)
                            ((_ extract 0 0) O)
                            (bvnot ((_ extract 1 1) O))
                            (bvnot ((_ extract 0 0) O))
                            ((_ extract 0 0) O)
                            ((_ extract 0 0) O))
                    ((_ extract 31 24) O)))
           (a!22 (= (concat (bvnot ((_ extract 1 1) O))
                            (bvnot ((_ extract 0 0) O))
                            (bvnot ((_ extract 0 0) O))
                            (bvnot ((_ extract 0 0) O))
                            ((_ extract 1 1) O)
                            (bvnot ((_ extract 0 0) O))
                            (bvnot ((_ extract 0 0) O))
                            (bvnot ((_ extract 0 0) O)))
                    ((_ extract 31 24) O)))
           (a!23 (= ((_ extract 31 24) O)
                    (concat (bvnot ((_ extract 1 1) O))
                            ((_ extract 0 0) O)
                            (bvnot ((_ extract 0 0) O))
                            ((_ extract 0 0) O)
                            ((_ extract 1 0) O)
                            ((_ extract 0 0) O)
                            ((_ extract 0 0) O))))
           (a!24 (not (= (bvnot ((_ extract 7 0) D)) #x00)))
           (a!25 (= (concat (bvnot ((_ extract 1 1) O))
                            ((_ extract 0 0) O)
                            ((_ extract 0 0) O)
                            (bvnot ((_ extract 0 0) O))
                            ((_ extract 1 1) O)
                            (bvnot ((_ extract 0 0) O))
                            ((_ extract 0 0) O)
                            (bvnot ((_ extract 0 0) O)))
                    ((_ extract 31 24) O)))
           (a!26 (= (concat ((_ extract 1 0) O)
                            (bvnot ((_ extract 0 0) O))
                            ((_ extract 0 0) O)
                            ((_ extract 1 1) O)
                            (bvnot ((_ extract 0 0) O))
                            ((_ extract 0 0) O)
                            (bvnot ((_ extract 0 0) O)))
                    ((_ extract 31 24) O))))
     (let ((a!27 (and (or ((_ bit2bool 26) G)
                          (not (= R #b0))
                          (not ((_ bit2bool 8) G)))
                      (or (= ((_ extract 26 26) G) #b0) (not (= F #b1)))
                      a!1
                      (or (not ((_ bit2bool 8) G)) (not ((_ bit2bool 0) T)))
                      (or (not (= Q #b1))
                          (not ((_ bit2bool 8) G))
                          ((_ bit2bool 0) N))
                      (or ((_ bit2bool 1) I) (not ((_ bit2bool 17) G)))
                      (or ((_ bit2bool 2) I) (= ((_ extract 26 26) G) #b0))
                      (or (= ((_ extract 0 0) I) #b1) (not ((_ bit2bool 8) G)))
                      (or (not ((_ bit2bool 2) G))
                          (not (= Q #b1))
                          ((_ bit2bool 2) V))
                      a!2
                      (or (not (= R #b0))
                          (not ((_ bit2bool 1) U))
                          (= ((_ extract 8 8) G) #b1))
                      (or (not ((_ bit2bool 0) I)) (= ((_ extract 8 8) G) #b1))
                      (or (not (= S #b1))
                          (not (= R #b0))
                          (= Z #b1)
                          (not (= Q #b1)))
                      (or (not ((_ bit2bool 2) B)) (not (= F #b1)))
                      (or (= Z #b1)
                          (not (= Q #b1))
                          (= ((_ extract 8 8) G) #b1)
                          (not ((_ bit2bool 0) N)))
                      a!3
                      (or ((_ bit2bool 3) I) (not (= M #b1)))
                      (or (= Z #b1)
                          (= ((_ extract 8 8) G) #b1)
                          (not ((_ bit2bool 0) N))
                          (not (= W #b0)))
                      (or (= ((_ extract 26 26) G) #b0)
                          (= ((_ extract 8 8) G) #b1)
                          (not ((_ bit2bool 0) N))
                          (= ((_ extract 17 17) G) #b1))
                      a!4
                      (or ((_ bit2bool 4) I)
                          (= ((_ extract 26 26) G) #b0)
                          (= ((_ extract 8 8) G) #b1)
                          (= ((_ extract 17 17) G) #b1))
                      (or (not (= R #b0))
                          ((_ bit2bool 8) G)
                          (not ((_ bit2bool 0) U)))
                      (or (not (= R #b0))
                          (not ((_ bit2bool 2) U))
                          (= ((_ extract 8 8) G) #b1))
                      (or (not (= M #b1))
                          ((_ bit2bool 26) G)
                          (not ((_ bit2bool 17) G)))
                      (or (not (= M #b0))
                          (not ((_ bit2bool 17) G))
                          (= ((_ extract 8 8) G) #b1))
                      a!5
                      a!6
                      (or (not (= M #b0))
                          (not (= Q #b1))
                          (not ((_ bit2bool 10) G))
                          (not ((_ bit2bool 4) G))
                          ((_ bit2bool 0) N)
                          (not ((_ bit2bool 4) I)))
                      a!7
                      (or (not ((_ bit2bool 17) G))
                          (= ((_ extract 8 8) G) #b1)
                          (not (= N #b1)))
                      (or (= ((_ extract 26 26) G) #b0)
                          (= ((_ extract 8 8) G) #b1)
                          (not (= R #b1)))
                      (or (not ((_ bit2bool 8) G))
                          (not (= R #b0))
                          (not (= S #b1)))
                      (or (not ((_ bit2bool 8) G)) (not (= F #b1)))
                      a!8
                      a!9
                      (or (not ((_ bit2bool 0) B)) (= ((_ extract 8 8) G) #b1))
                      (or ((_ bit2bool 26) G)
                          (not ((_ bit2bool 2) B))
                          (not ((_ bit2bool 17) G)))
                      (or ((_ bit2bool 3) P) (= ((_ extract 8 8) G) #b1))
                      a!10
                      a!11
                      a!12
                      (or (not (= R #b0))
                          ((_ bit2bool 8) G)
                          (not ((_ bit2bool 6) U)))
                      a!13
                      (or (not (= S #b1))
                          (not ((_ bit2bool 0) G))
                          ((_ bit2bool 17) G)
                          (not (= Q #b1))
                          (= ((_ extract 26 26) G) #b0))
                      a!14
                      a!15
                      a!16
                      (or (not ((_ bit2bool 31) O))
                          (not ((_ bit2bool 27) O))
                          (not ((_ bit2bool 29) O))
                          (not ((_ bit2bool 26) O))
                          (not ((_ bit2bool 30) O))
                          (not ((_ bit2bool 25) O))
                          (not ((_ bit2bool 16) O))
                          (not ((_ bit2bool 24) O))
                          ((_ bit2bool 2) I)
                          (not ((_ bit2bool 17) G))
                          (not ((_ bit2bool 16) D)))
                      (or (not ((_ bit2bool 1) D))
                          (not ((_ bit2bool 0) D))
                          (not (= R #b1))
                          (not a!17))
                      (or ((_ bit2bool 6) O)
                          (not ((_ bit2bool 6) D))
                          (not (= R #b1))
                          (= ((_ extract 1 1) O) #b1)
                          a!18)
                      (or ((_ bit2bool 4) O)
                          (not ((_ bit2bool 0) I))
                          (not ((_ bit2bool 4) D))
                          (not ((_ bit2bool 0) D))
                          (not a!19))
                      (or (not ((_ bit2bool 3) O))
                          (not ((_ bit2bool 3) D))
                          (not (= R #b1))
                          (not a!20))
                      (or ((_ bit2bool 3) O)
                          (not ((_ bit2bool 0) I))
                          (not ((_ bit2bool 3) D))
                          (not a!21))
                      (or (not ((_ bit2bool 2) O))
                          ((_ bit2bool 3) P)
                          (not ((_ bit2bool 7) D))
                          (not ((_ bit2bool 2) D))
                          (not ((_ bit2bool 7) O))
                          (not a!22))
                      (or (not ((_ bit2bool 6) D))
                          (not ((_ bit2bool 6) O))
                          (not (= R #b1))
                          (= ((_ extract 1 1) O) #b1)
                          (not a!23))
                      (or (not ((_ bit2bool 0) I)) a!24 (not a!25))
                      (or (not ((_ bit2bool 1) O))
                          (not ((_ bit2bool 0) I))
                          (not ((_ bit2bool 6) D))
                          (not ((_ bit2bool 6) O))
                          (not a!26))
                      (or ((_ bit2bool 2) P) (= ((_ extract 8 8) G) #b1))
                      (or ((_ bit2bool 3) P)
                          (not ((_ bit2bool 3) I))
                          (= ((_ extract 17 17) G) #b1)))))
       (= (INV!slice!1 A B C D E F G H I J K L M N O P Q R S T U V W X Y Z A1)
          a!27)))
     :weight 0))
